/*********************************************
 * OPL 12.6.0.0 Data
 * Author: Adrian Rodriguez Bazaga, Pau Rodriguez Esmerats
 * Creation Date: 27/12/2017 at 23:56:28
 *********************************************/

maxConsec=5;
maxPresence=16;
maxHours=10;
minHours=1;
hours=24;
demand= [94 111 112 85 48 70 52 95 92 103 101 79 39 32 17 7 3 4 3 4 4 4 4 4  ];
nNurses=192;
centroides=2;
